303762
303762
303762
299585
299585
299371
298961
297390
297390
295159
295159
295159
295159
293236
293236
293236
292272
291730
291174
291174
291174
291174
291174
291174
289459
289459
289459
289459
288482
288482
288482
288179
288179
288179
288179
288179
288179
288179
288179
285208
285208
285208
285208
285208
285208
285208
285208
285208
283004
283004
283004
280832
280832
280832
280832
280832
280832
280832
280832
280832
280832
280832
280832
280832
280832
280832
280832
280832
280832
280832
280832
280832
280832
280832
280832
280832
280832
280832
280832
280832
280832
280832
280832
280832
280832
280832
280832
280832
280832
280832
280832
280832
280832
280832
280832
280832
280832
280832
280832
280832
